experiment/data/lkh-res/Vrp-Set-A-n54/Vrp-Set-A-n54-lkh/0.lkh1.vrp
NAME : 0
COMMENT : CVRP Instance
TYPE : CVRP
DIMENSION : 54
EDGE_WEIGHT_TYPE : EUC_2D
CAPACITY : 100
NODE_COORD_SECTION
1	6100	500
2	8500	5300
3	1700	5700
4	4900	9300
5	6900	1100
6	8700	1500
7	4900	3900
8	8700	2300
9	1900	8300
10	6900	8700
11	6900	4300
12	4900	6700
13	1700	6100
14	4500	6100
15	2100	5300
16	7100	3700
17	5300	2300
18	7700	6300
19	8900	700
20	2100	8300
21	7700	2500
22	8500	9500
23	4300	9300
24	7500	2500
25	100	4300
26	700	700
27	8100	6900
28	2300	5700
29	8100	1500
30	7700	3500
31	4900	300
32	2100	9300
33	4100	3700
34	7100	9100
35	3100	1300
36	6900	3300
37	9100	4700
38	1300	6900
39	6500	7500
40	9100	2700
41	900	8500
42	1500	1900
43	700	3700
44	6100	1100
45	5900	8300
46	8500	6900
47	1500	2900
48	100	1300
49	100	8300
50	8500	3100
51	9500	2500
52	500	3300
53	5100	1100
54	5100	8500
DEMAND_SECTION
1	0
2	24
3	9
4	15
5	17
6	2
7	19
8	10
9	17
10	20
11	16
12	8
13	12
14	3
15	23
16	4
17	23
18	20
19	2
20	19
21	2
22	23
23	23
24	5
25	12
26	15
27	9
28	13
29	18
30	16
31	7
32	6
33	2
34	8
35	2
36	2
37	4
38	13
39	18
40	9
41	19
42	3
43	14
44	19
45	21
46	4
47	6
48	22
49	13
50	10
51	18
52	5
53	9
54	36
DEPOT_SECTION
1
-1
EOF
