experiment/data/lkh-res/Vrp-Set-A-n54/Vrp-Set-A-n54-lkh/0.lkh1.tour
NAME : 0.117171.tour
COMMENT : Length = 117171
COMMENT : Found by LKH-3 [Keld Helsgaun] Tue Apr  9 00:44:57 2024
TYPE : TOUR
DIMENSION : 60
TOUR_SECTION
1
15
3
13
28
7
17
58
33
38
49
41
32
9
20
12
55
39
10
34
22
27
46
37
50
21
59
45
54
4
23
14
56
53
35
42
47
43
25
52
48
26
31
57
36
16
11
18
2
30
24
60
19
6
51
40
8
29
5
44
-1
EOF
